NAME: instance_1503
TYPE: TSP
DIMENSION: 20
EDGE_WEIGHT_TYPE: EUC_2D
NODE_COORD_SECTION
0 79.29 13.22
1 99.59 28.42
2 34.21 62.44
3 3.24 44.21
4 44.54 49.09
5 79.65 16.02
6 46.53 91.64
7 89.01 27.46
8 46.02 61.06
9 86.10 5.07
10 88.07 7.52
11 4.26 40.78
12 29.16 48.57
13 38.98 76.16
14 73.56 40.56
15 19.32 14.96
16 30.60 9.40
17 55.52 46.89
18 9.05 57.51
19 89.08 80.80
EOF
